s td 33 13 45
b 1 2 17
b 2 20 42
b 3 6 13 38
b 4 14 24 38
b 5 5 30 36
b 6 26 37 40
b 7 4 5 9 27
b 8 3 4 21 32
b 9 1 2 5 7 9 15 16 18 30 31 33 37 38
b 10 2 4 5 7 9 15 16 30 31 33 37 38
b 11 2 4 7 9 11 15 16 30 31 33 37 38
b 12 2 4 7 9 10 11 15 16 30 31 33 37
b 13 4 7 10 11 16 21 30 31 33
b 14 3 4 7 10 11 21 30
b 15 4 7 10 16 21 30 43
b 16 2 9 10 11 20 30 37
b 17 2 11 12 20 37
b 18 9 10 11 20 30 45
b 19 4 5 9 25 30 31 37 38
b 20 25 30 31 35 38
b 21 1 2 5 7 16 18 30 31 33 37 44
b 22 1 2 7 16 30 33 37 39 44
b 23 2 7 28 30 33 37 39 44
b 24 2 7 8 28 30 33
b 25 1 2 5 7 9 13 15 16 18 31 33 37 38
b 26 1 2 5 7 9 13 15 18 33 34 37 38
b 27 2 5 7 13 14 15 18 33 34 37 38
b 28 2 5 13 14 15 18 26 33 34 37
b 29 2 5 13 14 18 26 33 34 41
b 30 13 14 18 26 29 33 34 41
b 31 13 14 19 26 29 34 41
b 32 13 14 19 23 29 34
b 33 14 22 29 33 34 41
1 9
2 16
3 25
4 27
5 9
6 28
7 10
8 14
9 10
9 21
9 25
10 11
10 19
11 12
12 13
12 16
13 14
13 15
16 17
16 18
19 20
21 22
22 23
23 24
25 26
26 27
27 28
28 29
29 30
30 31
30 33
31 32
